; PUSH cw_3 DUP1 PUSH cw_4 PUSH cw_3 SWAP1 => PUSH cw_3 DUP1 DUP1 PUSH cw_4
(set-option :produce-proofs true)
; 
(set-info :status unknown)
(declare-fun storage_t ((_ BitVec 256) (_ BitVec 256) Int (_ BitVec 256)) (_ BitVec 256))
(declare-fun w_4 () (_ BitVec 256))
(declare-fun w_3 () (_ BitVec 256))
(declare-fun storage_s ((_ BitVec 256) (_ BitVec 256) Int (_ BitVec 256)) (_ BitVec 256))
(declare-fun exc_halt_t (Int) Bool)
(declare-fun exc_halt_s (Int) Bool)
(declare-fun stack_t ((_ BitVec 256) (_ BitVec 256) Int (_ BitVec 6)) (_ BitVec 256))
(declare-fun stack_s ((_ BitVec 256) (_ BitVec 256) Int (_ BitVec 6)) (_ BitVec 256))
(declare-fun sc_t (Int) (_ BitVec 6))
(declare-fun sc_s (Int) (_ BitVec 6))
(declare-fun used_gas_t ((_ BitVec 256) (_ BitVec 256) Int) Int)
(declare-fun used_gas_s ((_ BitVec 256) (_ BitVec 256) Int) Int)
(assert
 (let (($x7258 (forall ((w (_ BitVec 256)) )(let ((?x545 (storage_t w_3 w_4 4 w)))
 (let ((?x10359 (storage_s w_3 w_4 5 w)))
 (= ?x10359 ?x545))))
 ))
 (let (($x7854 (exc_halt_t 4)))
 (let (($x1862 (exc_halt_s 5)))
 (let (($x1994 (= $x1862 $x7854)))
 (let (($x9898 (forall ((n (_ BitVec 6)) )(let ((?x2091 (stack_t w_3 w_4 4 n)))
 (let ((?x10881 (stack_s w_3 w_4 5 n)))
 (let (($x6429 (= ?x10881 ?x2091)))
 (let ((?x7495 (sc_t 4)))
 (let (($x4797 (bvsle ?x7495 n)))
 (or $x4797 $x6429)))))))
 ))
 (let ((?x7495 (sc_t 4)))
 (let ((?x4319 (sc_s 5)))
 (let (($x3074 (= ?x4319 ?x7495)))
 (let (($x7858 (not (and $x3074 $x9898 $x1994 $x7258))))
 (let ((?x2960 (used_gas_t w_3 w_4 0)))
 (let ((?x6359 (used_gas_s w_3 w_4 0)))
 (let (($x10965 (= ?x6359 ?x2960)))
 (let (($x11202 (forall ((w (_ BitVec 256)) )(let ((?x1997 (storage_t w_3 w_4 0 w)))
 (let ((?x4331 (storage_s w_3 w_4 0 w)))
 (= ?x4331 ?x1997))))
 ))
 (let (($x56 (exc_halt_t 0)))
 (let (($x57 (exc_halt_s 0)))
 (let (($x58 (= $x57 $x56)))
 (let (($x4984 (forall ((n (_ BitVec 6)) )(let ((?x1339 (stack_t w_3 w_4 0 n)))
 (let ((?x773 (stack_s w_3 w_4 0 n)))
 (let (($x8062 (= ?x773 ?x1339)))
 (let ((?x63 (sc_t 0)))
 (let (($x848 (bvsle ?x63 n)))
 (or $x848 $x8062)))))))
 ))
 (let ((?x63 (sc_t 0)))
 (let ((?x72 (sc_s 0)))
 (let (($x73 (= ?x72 ?x63)))
 (let (($x3365 (not (= ((_ extract 6 6) (bvadd (_ bv1 7) (concat (_ bv0 1) (sc_t 3)))) (_ bv0 1)))))
 (let (($x4112 (exc_halt_t 3)))
 (let (($x8413 (= $x7854 (or $x4112 $x3365))))
 (let (($x981 (forall ((w (_ BitVec 256)) )(let ((?x2315 (storage_t w_3 w_4 3 w)))
 (let ((?x545 (storage_t w_3 w_4 4 w)))
 (= ?x545 ?x2315))))
 ))
 (let (($x1986 (forall ((n (_ BitVec 6)) )(let ((?x11964 (sc_t 3)))
 (let (($x384 (bvsle ?x11964 n)))
 (or $x384 (= (stack_t w_3 w_4 4 n) (stack_t w_3 w_4 3 n))))))
 ))
 (let (($x11346 (= ?x7495 (bvadd (_ bv1 6) (sc_t 3)))))
 (let (($x6216 (= (used_gas_t w_3 w_4 4) (+ 3 (used_gas_t w_3 w_4 3)))))
 (let (($x10081 (= (stack_t w_3 w_4 4 (sc_t 3)) w_4)))
 (let (($x8412 (exc_halt_t 2)))
 (let (($x2655 (not (= ((_ extract 6 6) (bvadd (_ bv1 7) (concat (_ bv0 1) (sc_t 2)))) (_ bv0 1)))))
 (let (($x8479 (= $x4112 (or $x2655 $x8412 (not (bvsle (_ bv0 6) (bvadd (_ bv63 6) (sc_t 2))))))))
 (let (($x10964 (forall ((w (_ BitVec 256)) )(let ((?x8615 (storage_t w_3 w_4 2 w)))
 (let ((?x2315 (storage_t w_3 w_4 3 w)))
 (= ?x2315 ?x8615))))
 ))
 (let (($x11020 (forall ((n (_ BitVec 6)) )(let ((?x11248 (sc_t 2)))
 (let ((?x6468 (bvadd (_ bv63 6) ?x11248)))
 (let (($x10481 (bvsle ?x6468 n)))
 (let ((?x8221 (stack_t w_3 w_4 2 n)))
 (let ((?x10648 (stack_t w_3 w_4 3 n)))
 (let (($x9246 (= ?x10648 ?x8221)))
 (or $x9246 $x10481))))))))
 ))
 (let ((?x11964 (sc_t 3)))
 (let (($x11439 (= ?x11964 (bvadd (_ bv1 6) (sc_t 2)))))
 (let ((?x8795 (used_gas_t w_3 w_4 3)))
 (let (($x11036 (= ?x8795 (+ 3 (used_gas_t w_3 w_4 2)))))
 (let ((?x11248 (sc_t 2)))
 (let ((?x6468 (bvadd (_ bv63 6) ?x11248)))
 (let ((?x1139 (stack_t w_3 w_4 2 ?x6468)))
 (let (($x7060 (= (stack_t w_3 w_4 3 ?x6468) ?x1139)))
 (let (($x4852 (exc_halt_t 1)))
 (let (($x2931 (not (= ((_ extract 6 6) (bvadd (_ bv1 7) (concat (_ bv0 1) (sc_t 1)))) (_ bv0 1)))))
 (let (($x1982 (not (bvsle (_ bv0 6) (bvadd (_ bv63 6) (sc_t 1))))))
 (let (($x11348 (= $x8412 (or $x1982 $x2931 $x4852))))
 (let (($x11117 (forall ((w (_ BitVec 256)) )(let ((?x8416 (storage_t w_3 w_4 1 w)))
 (let ((?x8615 (storage_t w_3 w_4 2 w)))
 (= ?x8615 ?x8416))))
 ))
 (let (($x6042 (forall ((n (_ BitVec 6)) )(let ((?x9666 (sc_t 1)))
 (let ((?x4486 (bvadd (_ bv63 6) ?x9666)))
 (let (($x3214 (bvsle ?x4486 n)))
 (or $x3214 (= (stack_t w_3 w_4 2 n) (stack_t w_3 w_4 1 n)))))))
 ))
 (let (($x3033 (= ?x11248 (bvadd (_ bv1 6) (sc_t 1)))))
 (let ((?x11088 (used_gas_t w_3 w_4 2)))
 (let (($x8601 (= ?x11088 (+ 3 (used_gas_t w_3 w_4 1)))))
 (let ((?x9666 (sc_t 1)))
 (let ((?x4486 (bvadd (_ bv63 6) ?x9666)))
 (let ((?x3491 (stack_t w_3 w_4 1 ?x4486)))
 (let (($x4028 (= (stack_t w_3 w_4 2 ?x4486) ?x3491)))
 (let (($x7946 (= ?x1139 ?x3491)))
 (let (($x10044 (= $x4852 (or $x56 (not (= ((_ extract 6 6) (bvadd (_ bv1 7) (concat (_ bv0 1) ?x63))) (_ bv0 1)))))))
 (let (($x11169 (forall ((w (_ BitVec 256)) )(let ((?x1997 (storage_t w_3 w_4 0 w)))
 (let ((?x8416 (storage_t w_3 w_4 1 w)))
 (= ?x8416 ?x1997))))
 ))
 (let (($x8502 (forall ((n (_ BitVec 6)) )(let ((?x63 (sc_t 0)))
 (let (($x848 (bvsle ?x63 n)))
 (or $x848 (= (stack_t w_3 w_4 1 n) (stack_t w_3 w_4 0 n))))))
 ))
 (let (($x7751 (= ?x9666 (bvadd (_ bv1 6) ?x63))))
 (let ((?x7460 (used_gas_t w_3 w_4 1)))
 (let (($x2330 (= ?x7460 (+ 3 ?x2960))))
 (let (($x10393 (= (stack_t w_3 w_4 1 ?x63) w_3)))
 (let (($x939 (= $x1862 (or (exc_halt_s 4) (not (bvsle (_ bv0 6) (bvadd (_ bv62 6) (sc_s 4))))))))
 (let (($x7966 (forall ((w (_ BitVec 256)) )(let ((?x492 (storage_s w_3 w_4 4 w)))
 (let ((?x10359 (storage_s w_3 w_4 5 w)))
 (= ?x10359 ?x492))))
 ))
 (let (($x6424 (forall ((n (_ BitVec 6)) )(let ((?x9433 (sc_s 4)))
 (let ((?x1027 (bvadd (_ bv62 6) ?x9433)))
 (let (($x11033 (bvsle ?x1027 n)))
 (or (= (stack_s w_3 w_4 5 n) (stack_s w_3 w_4 4 n)) $x11033)))))
 ))
 (let ((?x9433 (sc_s 4)))
 (let (($x3939 (= ?x4319 ?x9433)))
 (let (($x3902 (= (used_gas_s w_3 w_4 5) (+ 3 (used_gas_s w_3 w_4 4)))))
 (let (($x1039 (= (stack_s w_3 w_4 5 (bvadd (_ bv62 6) ?x4319)) (stack_s w_3 w_4 4 (bvadd (_ bv63 6) ?x9433)))))
 (let (($x8384 (= (stack_s w_3 w_4 5 (bvadd (_ bv63 6) ?x4319)) (stack_s w_3 w_4 4 (bvadd (_ bv62 6) ?x9433)))))
 (let (($x10859 (not (= ((_ extract 6 6) (bvadd (_ bv1 7) (concat (_ bv0 1) (sc_s 3)))) (_ bv0 1)))))
 (let (($x8103 (exc_halt_s 3)))
 (let (($x9175 (exc_halt_s 4)))
 (let (($x5586 (= $x9175 (or $x8103 $x10859))))
 (let (($x3911 (forall ((w (_ BitVec 256)) )(let ((?x8041 (storage_s w_3 w_4 3 w)))
 (let ((?x492 (storage_s w_3 w_4 4 w)))
 (= ?x492 ?x8041))))
 ))
 (let (($x2478 (forall ((n (_ BitVec 6)) )(let ((?x3851 (sc_s 3)))
 (let (($x9560 (bvsle ?x3851 n)))
 (or (= (stack_s w_3 w_4 4 n) (stack_s w_3 w_4 3 n)) $x9560))))
 ))
 (let (($x532 (= ?x9433 (bvadd (_ bv1 6) (sc_s 3)))))
 (let ((?x2109 (used_gas_s w_3 w_4 4)))
 (let (($x3856 (= ?x2109 (+ 3 (used_gas_s w_3 w_4 3)))))
 (let (($x1117 (= (stack_s w_3 w_4 4 (sc_s 3)) w_3)))
 (let (($x8424 (not (= ((_ extract 6 6) (bvadd (_ bv1 7) (concat (_ bv0 1) (sc_s 2)))) (_ bv0 1)))))
 (let (($x10052 (exc_halt_s 2)))
 (let (($x4734 (= $x8103 (or $x10052 $x8424))))
 (let (($x5223 (forall ((w (_ BitVec 256)) )(let ((?x144 (storage_s w_3 w_4 2 w)))
 (let ((?x8041 (storage_s w_3 w_4 3 w)))
 (= ?x8041 ?x144))))
 ))
 (let (($x3757 (forall ((n (_ BitVec 6)) )(let ((?x2272 (sc_s 2)))
 (let (($x7461 (bvsle ?x2272 n)))
 (or $x7461 (= (stack_s w_3 w_4 3 n) (stack_s w_3 w_4 2 n))))))
 ))
 (let ((?x3851 (sc_s 3)))
 (let (($x11788 (= ?x3851 (bvadd (_ bv1 6) (sc_s 2)))))
 (let ((?x8201 (used_gas_s w_3 w_4 3)))
 (let (($x10312 (= ?x8201 (+ 3 (used_gas_s w_3 w_4 2)))))
 (let (($x3736 (= (stack_s w_3 w_4 3 (sc_s 2)) w_4)))
 (let (($x11633 (not (= ((_ extract 6 6) (bvadd (_ bv1 7) (concat (_ bv0 1) (sc_s 1)))) (_ bv0 1)))))
 (let (($x8780 (exc_halt_s 1)))
 (let (($x604 (not (bvsle (_ bv0 6) (bvadd (_ bv63 6) (sc_s 1))))))
 (let (($x9762 (= $x10052 (or $x604 $x8780 $x11633))))
 (let (($x8952 (forall ((w (_ BitVec 256)) )(let ((?x3113 (storage_s w_3 w_4 1 w)))
 (let ((?x144 (storage_s w_3 w_4 2 w)))
 (= ?x144 ?x3113))))
 ))
 (let (($x1743 (forall ((n (_ BitVec 6)) )(let ((?x154 (sc_s 1)))
 (let ((?x9696 (bvadd (_ bv63 6) ?x154)))
 (let (($x2834 (bvsle ?x9696 n)))
 (or $x2834 (= (stack_s w_3 w_4 2 n) (stack_s w_3 w_4 1 n)))))))
 ))
 (let ((?x2272 (sc_s 2)))
 (let (($x2632 (= ?x2272 (bvadd (_ bv1 6) (sc_s 1)))))
 (let ((?x8607 (used_gas_s w_3 w_4 2)))
 (let (($x10560 (= ?x8607 (+ 3 (used_gas_s w_3 w_4 1)))))
 (let ((?x154 (sc_s 1)))
 (let ((?x9696 (bvadd (_ bv63 6) ?x154)))
 (let ((?x9761 (stack_s w_3 w_4 1 ?x9696)))
 (let (($x2863 (= (stack_s w_3 w_4 2 ?x9696) ?x9761)))
 (let (($x7113 (= (stack_s w_3 w_4 2 (bvadd (_ bv63 6) ?x2272)) ?x9761)))
 (let (($x2774 (= $x8780 (or $x57 (not (= ((_ extract 6 6) (bvadd (_ bv1 7) (concat (_ bv0 1) ?x72))) (_ bv0 1)))))))
 (let (($x8643 (forall ((w (_ BitVec 256)) )(let ((?x4331 (storage_s w_3 w_4 0 w)))
 (let ((?x3113 (storage_s w_3 w_4 1 w)))
 (= ?x3113 ?x4331))))
 ))
 (let (($x1933 (forall ((n (_ BitVec 6)) )(let ((?x72 (sc_s 0)))
 (let (($x3871 (bvsle ?x72 n)))
 (or $x3871 (= (stack_s w_3 w_4 1 n) (stack_s w_3 w_4 0 n))))))
 ))
 (let (($x2838 (= ?x154 (bvadd (_ bv1 6) ?x72))))
 (let ((?x5080 (used_gas_s w_3 w_4 1)))
 (let (($x10267 (= ?x5080 (+ 3 ?x6359))))
 (let (($x1908 (= (stack_s w_3 w_4 1 ?x72) w_3)))
 (let (($x5777 (forall ((w (_ BitVec 256)) )(let ((?x4331 (storage_s w_3 w_4 0 w)))
 (= ?x4331 (_ bv0 256))))
 ))
 (let (($x4933 (= ?x6359 0)))
 (let (($x10373 (not $x57)))
 (let (($x10624 (= ?x72 (_ bv0 6))))
 (and $x10624 $x10373 $x4933 $x5777 $x1908 $x10267 $x2838 $x1933 $x8643 $x2774 $x7113 $x2863 $x10560 $x2632 $x1743 $x8952 $x9762 $x3736 $x10312 $x11788 $x3757 $x5223 $x4734 $x1117 $x3856 $x532 $x2478 $x3911 $x5586 $x8384 $x1039 $x3902 $x3939 $x6424 $x7966 $x939 $x10393 $x2330 $x7751 $x8502 $x11169 $x10044 $x7946 $x4028 $x8601 $x3033 $x6042 $x11117 $x11348 (= (stack_t w_3 w_4 3 (bvadd (_ bv63 6) ?x11964)) ?x1139) $x7060 $x11036 $x11439 $x11020 $x10964 $x8479 $x10081 $x6216 $x11346 $x1986 $x981 $x8413 $x73 $x4984 $x58 $x11202 $x10965 $x7858))))))))))))))))))))))))))))))))))))))))))))))))))))))))))))))))))))))))))))))))))))))))))))))))))))))))))))))))))))))
(check-sat)
(get-proof)
